(set-option :produce-models true); benchmark generated from python API
(set-info :status unknown)
(declare-fun l_0_0_4 () Real)
(declare-fun _a_0_ () Real)
(declare-fun l_0_0_6 () Real)
(declare-fun l_0_0_5 () Real)
(declare-fun l_0_0_1 () Real)
(declare-fun l_0_0_2 () Real)
(declare-fun _a_1_ () Real)
(declare-fun _a_2_ () Real)
(declare-fun l_0_0_3 () Real)
(declare-fun l_0_1_7 () Real)
(declare-fun l_0_1_4 () Real)
(declare-fun l_0_1_1 () Real)
(declare-fun l_0_1_9 () Real)
(declare-fun l_0_1_8 () Real)
(declare-fun l_0_1_6 () Real)
(declare-fun l_0_1_5 () Real)
(declare-fun l_0_1_2 () Real)
(declare-fun l_0_1_3 () Real)
(declare-fun l_0_2_7 () Real)
(declare-fun l_0_2_4 () Real)
(declare-fun l_0_2_1 () Real)
(declare-fun l_0_2_9 () Real)
(declare-fun l_0_2_8 () Real)
(declare-fun l_0_2_6 () Real)
(declare-fun l_0_2_5 () Real)
(declare-fun l_0_2_2 () Real)
(declare-fun l_0_2_3 () Real)
(assert
 (= (- _a_0_ (* l_0_0_4 l_0_0_4)) 0.0))
(assert
 (let ((?x66 (* l_0_0_6 l_0_0_6)))
 (let ((?x64 (* l_0_0_5 l_0_0_5)))
 (let ((?x62 (* l_0_0_1 l_0_0_1)))
 (let ((?x67 (- (- (+ (- _a_1_ (* (* 2.0 l_0_0_1) l_0_0_2)) ?x62) ?x64) ?x66)))
 (= ?x67 0.0))))))
(assert
 (let ((?x90 (- (- _a_2_ (* (* 1.0 l_0_0_1) l_0_0_1)) (* (* 2.0 l_0_0_4) l_0_0_5))))
 (= ?x90 0.0)))
(assert
 (let ((?x60 (* (* 2.0 l_0_0_1) l_0_0_2)))
 (let ((?x106 (- (- ?x60 (* (* 1.0 l_0_0_2) l_0_0_2)) (* (* 1.0 l_0_0_3) l_0_0_3))))
 (= ?x106 0.0))))
(assert
 (= (+ (* l_0_0_2 l_0_0_2) (* l_0_0_3 l_0_0_3)) 0.0))
(assert
 (>= l_0_0_1 0.0))
(assert
 (>= l_0_0_3 0.0))
(assert
 (>= l_0_0_4 0.0))
(assert
 (>= l_0_0_6 0.0))
(assert
 (let ((?x129 (* l_0_1_7 l_0_1_7)))
 (let ((?x125 (* l_0_1_4 l_0_1_4)))
 (let ((?x127 (* (/ 51.0 100.0) ?x125)))
 (= (+ (- (+ (* (* (- _a_0_) l_0_1_1) l_0_1_1) ?x127) ?x129) (/ 3.0 2.0)) 0.0)))))
(assert
 (let ((?x167 (* l_0_1_9 l_0_1_9)))
 (let ((?x165 (* l_0_1_8 l_0_1_8)))
 (let ((?x162 (* l_0_1_6 l_0_1_6)))
 (let ((?x163 (* (/ 51.0 100.0) ?x162)))
 (let ((?x159 (* l_0_1_5 l_0_1_5)))
 (let ((?x160 (* (/ 51.0 100.0) ?x159)))
 (let ((?x125 (* l_0_1_4 l_0_1_4)))
 (let ((?x149 (- (* (- _a_0_) (+ (* l_0_1_2 l_0_1_2) (* l_0_1_3 l_0_1_3))) (* (* _a_1_ l_0_1_1) l_0_1_1))))
 (let ((?x157 (+ (- ?x149 (* (* (* 2.0 _a_2_) l_0_1_1) l_0_1_2)) (* (* (/ 14.0 5.0) l_0_1_4) l_0_1_5))))
 (= (- (- (- (+ (+ (- ?x157 ?x125) ?x160) ?x163) ?x165) ?x167) 1.0) 0.0)))))))))))
(assert
 (let ((?x125 (* l_0_1_4 l_0_1_4)))
 (let ((?x220 (* (/ 7.0 5.0) ?x125)))
 (let ((?x214 (- (* (* (* (- 2.0) _a_0_) l_0_1_1) l_0_1_2) (* (* _a_2_ l_0_1_1) l_0_1_1))))
 (let ((?x224 (- (+ (+ ?x214 (* (* (/ 51.0 50.0) l_0_1_4) l_0_1_5)) ?x220) (* (* 2.0 l_0_1_7) l_0_1_8))))
 (= (+ ?x224 (/ 1.0 2.0)) 0.0))))))
(assert
 (let ((?x162 (* l_0_1_6 l_0_1_6)))
 (let ((?x254 (* (/ 7.0 5.0) ?x162)))
 (let ((?x159 (* l_0_1_5 l_0_1_5)))
 (let ((?x252 (* (/ 7.0 5.0) ?x159)))
 (let ((?x248 (- (* (* (* (- 2.0) _a_1_) l_0_1_1) l_0_1_2) (* _a_2_ (+ (* l_0_1_2 l_0_1_2) (* l_0_1_3 l_0_1_3))))))
 (= (+ (+ (- ?x248 (* (* 2.0 l_0_1_4) l_0_1_5)) ?x252) ?x254) 0.0)))))))
(assert
 (let ((?x162 (* l_0_1_6 l_0_1_6)))
 (let ((?x159 (* l_0_1_5 l_0_1_5)))
 (let ((?x280 (- (* (- _a_1_) (+ (* l_0_1_2 l_0_1_2) (* l_0_1_3 l_0_1_3))) ?x159)))
 (= (- ?x280 ?x162) 0.0)))))
(assert
 (>= l_0_1_1 0.0))
(assert
 (>= l_0_1_3 0.0))
(assert
 (>= l_0_1_4 0.0))
(assert
 (>= l_0_1_6 0.0))
(assert
 (>= l_0_1_7 0.0))
(assert
 (>= l_0_1_9 0.0))
(assert
 (let ((?x309 (* l_0_2_7 l_0_2_7)))
 (let ((?x308 (- (+ (* (* (- _a_0_) l_0_2_1) l_0_2_1) _a_0_) (* (* (/ 51.0 100.0) l_0_2_4) l_0_2_4))))
 (= (- ?x308 ?x309) 0.0))))
(assert
 (let ((?x353 (* l_0_2_9 l_0_2_9)))
 (let ((?x351 (* l_0_2_8 l_0_2_8)))
 (let ((?x313 (* l_0_2_4 l_0_2_4)))
 (let ((?x339 (* (/ 8.0 5.0) _a_2_)))
 (let ((?x333 (* (/ 64.0 25.0) _a_1_)))
 (let ((?x331 (- (* (- _a_0_) (+ (* l_0_2_2 l_0_2_2) (* l_0_2_3 l_0_2_3))) (* (* _a_1_ l_0_2_1) l_0_2_1))))
 (let ((?x340 (+ (- (+ ?x331 ?x333) (* (* (* 2.0 _a_2_) l_0_2_1) l_0_2_2)) ?x339)))
 (let ((?x347 (- (+ (- ?x340 (* (* (/ 14.0 5.0) l_0_2_4) l_0_2_5)) ?x313) (* (* (/ 51.0 100.0) l_0_2_5) l_0_2_5))))
 (= (- (- (- ?x347 (* (* (/ 51.0 100.0) l_0_2_6) l_0_2_6)) ?x351) ?x353) 0.0))))))))))
(assert
 (let ((?x405 (- (- (* (* (* (- 2.0) _a_1_) l_0_2_1) l_0_2_2) (* (/ 128.0 25.0) _a_1_)) (* _a_2_ (+ (* l_0_2_2 l_0_2_2) (* l_0_2_3 l_0_2_3))))))
 (let ((?x411 (- (+ ?x405 (* (* 2.0 l_0_2_4) l_0_2_5)) (* (* (/ 7.0 5.0) l_0_2_5) l_0_2_5))))
 (= (- ?x411 (* (* (/ 7.0 5.0) l_0_2_6) l_0_2_6)) 0.0))))
(assert
 (let ((?x386 (* l_0_2_6 l_0_2_6)))
 (let ((?x380 (* l_0_2_5 l_0_2_5)))
 (let ((?x333 (* (/ 64.0 25.0) _a_1_)))
 (let ((?x453 (+ (* (- _a_1_) (+ (* l_0_2_2 l_0_2_2) (* l_0_2_3 l_0_2_3))) ?x333)))
 (= (+ (+ ?x453 ?x380) ?x386) 0.0))))))
(assert
 (let ((?x339 (* (/ 8.0 5.0) _a_2_)))
 (let ((?x468 (- (* (* (* (- 2.0) _a_0_) l_0_2_1) l_0_2_2) (* (* _a_2_ l_0_2_1) l_0_2_1))))
 (let ((?x475 (- (- (- ?x468 ?x339) (* (* (/ 51.0 50.0) l_0_2_4) l_0_2_5)) (* (* (/ 7.0 5.0) l_0_2_4) l_0_2_4))))
 (= (- ?x475 (* (* 2.0 l_0_2_7) l_0_2_8)) 0.0)))))
(assert
 (>= l_0_2_1 0.0))
(assert
 (>= l_0_2_3 0.0))
(assert
 (>= l_0_2_4 0.0))
(assert
 (>= l_0_2_6 0.0))
(assert
 (>= l_0_2_7 0.0))
(assert
 (>= l_0_2_9 0.0))
(check-sat)
(get-model)